(set-logic QF_S)
(declare-fun var0 () String)
(assert (RegexIn var0 (RegexConcat (RegexUnion (RegexStar (RegexUnion (RegexUnion (RegexStar (RegexStar (RegexUnion (RegexStar (RegexUnion (RegexPlus (Str2Reg "0")) (RegexPlus (Str2Reg "111")))) (RegexStar (RegexUnion (RegexStar (Str2Reg "2")) (RegexStar (Str2Reg "333"))))))) (RegexStar (RegexPlus (RegexPlus (RegexPlus (RegexUnion (RegexPlus (Str2Reg "4")) (RegexPlus (Str2Reg "5")))))))) (RegexUnion (RegexStar (RegexPlus (RegexStar (RegexUnion (RegexUnion (RegexUnion (Str2Reg "666") (Str2Reg "7")) (RegexUnion (Str2Reg "8") (Str2Reg "9"))) (RegexUnion (RegexPlus (Str2Reg "a")) (RegexPlus (Str2Reg "b"))))))) (RegexStar (RegexStar (RegexPlus (RegexStar (RegexPlus (RegexStar (Str2Reg "ccc")))))))))) (RegexStar (RegexUnion (RegexUnion (RegexStar (RegexPlus (RegexStar (RegexPlus (RegexUnion (RegexPlus (Str2Reg "dd")) (RegexPlus (Str2Reg "e"))))))) (RegexStar (RegexUnion (RegexUnion (RegexStar (RegexPlus (RegexPlus (Str2Reg "f")))) (RegexStar (RegexStar (RegexPlus (Str2Reg "g"))))) (RegexUnion (RegexPlus (RegexUnion (RegexUnion (Str2Reg "hh") (Str2Reg "ii")) (RegexUnion (Str2Reg "jj") (Str2Reg "kkk")))) (RegexPlus (RegexPlus (RegexStar (Str2Reg "lll")))))))) (RegexUnion (RegexUnion (RegexUnion (RegexStar (RegexUnion (RegexPlus (RegexPlus (Str2Reg "mm"))) (RegexPlus (RegexStar (Str2Reg "nn"))))) (RegexStar (RegexUnion (RegexUnion (RegexStar (Str2Reg "oo")) (RegexStar (Str2Reg "p"))) (RegexUnion (RegexPlus (Str2Reg "qqq")) (RegexPlus (Str2Reg "rr")))))) (RegexUnion (RegexStar (RegexPlus (RegexPlus (RegexStar (Str2Reg "ss"))))) (RegexStar (RegexPlus (RegexStar (RegexUnion (Str2Reg "ttt") (Str2Reg "uu"))))))) (RegexUnion (RegexStar (RegexUnion (RegexStar (RegexStar (RegexUnion (Str2Reg "vvv") (Str2Reg "www")))) (RegexStar (RegexPlus (RegexUnion (Str2Reg "xxx") (Str2Reg "yyy")))))) (RegexStar (RegexStar (RegexUnion (RegexUnion (RegexPlus (Str2Reg "z")) (RegexPlus (Str2Reg "AA"))) (RegexUnion (RegexPlus (Str2Reg "B")) (RegexPlus (Str2Reg "C"))))))))))) (RegexPlus (RegexUnion (RegexStar (RegexStar (RegexStar (RegexStar (RegexStar (RegexStar (RegexStar (RegexPlus (Str2Reg "D"))))))))) (RegexStar (RegexUnion (RegexStar (RegexStar (RegexStar (RegexPlus (RegexPlus (RegexStar (Str2Reg "E"))))))) (RegexStar (RegexUnion (RegexPlus (RegexStar (RegexUnion (RegexPlus (Str2Reg "FFF")) (RegexPlus (Str2Reg "G"))))) (RegexPlus (RegexPlus (RegexStar (RegexPlus (Str2Reg "HH"))))))))))))))
(assert (<= 15 (Length var0)))
(check-sat)